TCS_Benchmarks/redos_fix/snort3_output_distinct_2018_2017_1_0.smt2
(set-logic QF_S)
(declare-const x String)
(assert (str.in.re x (re.inter  (re.++ (re.* (re.comp  (str.to.re "\u{22}")) ) (re.* (re.union (re.range "\u{09}" "\u{0d}") (re.range "\u{20}" "\u{20}") (re.range "\u{85}" "\u{85}") (re.range "\u{a0}" "\u{a0}")) ))  (re.++ (re.* (re.comp  (str.to.re "\u{22}")) ) (re.++  (re.++  (str.to.re "\u{2e}") (re.++  (re.union  (str.to.re "\u{78}")  (str.to.re "\u{58}")) (re.++  (re.union  (str.to.re "\u{6e}")  (str.to.re "\u{4e}"))  (re.union  (str.to.re "\u{6b}")  (str.to.re "\u{4b}"))))) (re.* (re.union (re.range "\u{09}" "\u{0d}") (re.range "\u{20}" "\u{20}") (re.range "\u{85}" "\u{85}") (re.range "\u{a0}" "\u{a0}")) ))) )))
(check-sat)
(get-model)