TCS_Benchmarks/redos_fix/snort3_output_distinct_2018_2017_1_0.txt
([^"]*)(\s*)
([^"]*)(\.[xX][nN][kK])(\s*)